Problem:    lamine
Rows:       16
Columns:    60 (60 integer, 6 binary)
Non-zeros:  120
Status:     INTEGER OPTIMAL
Objective:  z = 5 (MINimum)

   No.   Row name        Activity     Lower bound   Upper bound
------ ------------    ------------- ------------- -------------
     1 Demand[1]                   3             3             = 
     2 Demand[2]                   2             2             = 
     3 Demand[3]                   1             1             = 
     4 Demand[4]                   2             2             = 
     5 Demand[5]                   3             3             = 
     6 Demand[6]                   1             1             = 
     7 Demand[7]                   2             2             = 
     8 Demand[8]                   1             1             = 
     9 Demand[9]                   1             1             = 
    10 Width[1]                -1.05                          -0 
    11 Width[2]                    0                          -0 
    12 Width[3]                 -0.3                          -0 
    13 Width[4]                 -1.2                          -0 
    14 Width[5]                -1.45                          -0 
    15 Width[6]                    0                          -0 
    16 z                           5                             

   No. Column name       Activity     Lower bound   Upper bound
------ ------------    ------------- ------------- -------------
     1 x[1,1]       *              3             0               
     2 x[2,1]       *              0             0               
     3 x[3,1]       *              0             0               
     4 x[4,1]       *              0             0               
     5 x[5,1]       *              0             0               
     6 x[6,1]       *              0             0               
     7 x[1,2]       *              0             0               
     8 x[2,2]       *              0             0               
     9 x[3,2]       *              0             0               
    10 x[4,2]       *              1             0               
    11 x[5,2]       *              1             0               
    12 x[6,2]       *              0             0               
    13 x[1,3]       *              0             0               
    14 x[2,3]       *              0             0               
    15 x[3,3]       *              1             0               
    16 x[4,3]       *              0             0               
    17 x[5,3]       *              0             0               
    18 x[6,3]       *              0             0               
    19 x[1,4]       *              0             0               
    20 x[2,4]       *              1             0               
    21 x[3,4]       *              0             0               
    22 x[4,4]       *              0             0               
    23 x[5,4]       *              1             0               
    24 x[6,4]       *              0             0               
    25 x[1,5]       *              0             0               
    26 x[2,5]       *              0             0               
    27 x[3,5]       *              0             0               
    28 x[4,5]       *              3             0               
    29 x[5,5]       *              0             0               
    30 x[6,5]       *              0             0               
    31 x[1,6]       *              1             0               
    32 x[2,6]       *              0             0               
    33 x[3,6]       *              0             0               
    34 x[4,6]       *              0             0               
    35 x[5,6]       *              0             0               
    36 x[6,6]       *              0             0               
    37 x[1,7]       *              0             0               
    38 x[2,7]       *              1             0               
    39 x[3,7]       *              1             0               
    40 x[4,7]       *              0             0               
    41 x[5,7]       *              0             0               
    42 x[6,7]       *              0             0               
    43 x[1,8]       *              0             0               
    44 x[2,8]       *              1             0               
    45 x[3,8]       *              0             0               
    46 x[4,8]       *              0             0               
    47 x[5,8]       *              0             0               
    48 x[6,8]       *              0             0               
    49 x[1,9]       *              0             0               
    50 x[2,9]       *              1             0               
    51 x[3,9]       *              0             0               
    52 x[4,9]       *              0             0               
    53 x[5,9]       *              0             0               
    54 x[6,9]       *              0             0               
    55 y[1]         *              1             0             1 
    56 y[2]         *              1             0             1 
    57 y[3]         *              1             0             1 
    58 y[4]         *              1             0             1 
    59 y[5]         *              1             0             1 
    60 y[6]         *              0             0             1 

Integer feasibility conditions:

KKT.PE: max.abs.err = 0.00e+00 on row 0
        max.rel.err = 0.00e+00 on row 0
        High quality

KKT.PB: max.abs.err = 0.00e+00 on row 0
        max.rel.err = 0.00e+00 on row 0
        High quality

End of output
